solution status: optimal solution found
objective value:                     102183.505325317
x0                                                  1 	(obj:0)
x106                                                1 	(obj:0)
x212                                                1 	(obj:0)
x318                                                1 	(obj:0)
x424                                                1 	(obj:0)
x530                                                1 	(obj:0)
x636                                                1 	(obj:0)
x742                                                1 	(obj:0)
x848                                                1 	(obj:0)
x954                                                1 	(obj:0)
x1060                                               1 	(obj:0)
x1166                                               1 	(obj:0)
x1272                                               1 	(obj:0)
x1406                                               1 	(obj:916.199798583984)
x1557                                               1 	(obj:1199.39964294434)
x1618                                               1 	(obj:2241.60003662109)
x1756                                               1 	(obj:2241.60003662109)
x1831                                               1 	(obj:2241.60003662109)
x1937                                               1 	(obj:2241.60003662109)
x2059                                               1 	(obj:2241.60003662109)
x2150                                               1 	(obj:2241.60003662109)
x2276                                               1 	(obj:2241.60003662109)
x2382                                               1 	(obj:2241.60003662109)
x2473                                               1 	(obj:1053.08544158936)
x2572                                               1 	(obj:2241.60003662109)
x2692                                               1 	(obj:2241.60003662109)
x2800                                               1 	(obj:1053.08544158936)
x2909                                               1 	(obj:2241.60003662109)
x3017                                               1 	(obj:2241.60003662109)
x3147                                               1 	(obj:1199.39964294434)
x3249                                               1 	(obj:2241.60003662109)
x3335                                               1 	(obj:1199.39964294434)
x3455                                               1 	(obj:2241.60003662109)
x3558                                               1 	(obj:2241.60003662109)
x3654                                               1 	(obj:2241.60003662109)
x3767                                               1 	(obj:2241.60003662109)
x3869                                               1 	(obj:1199.39964294434)
x3973                                               1 	(obj:1199.39964294434)
x4091                                               1 	(obj:2241.60003662109)
x4191                                               1 	(obj:1199.39964294434)
x4297                                               1 	(obj:2128.28544616699)
x4359                                               1 	(obj:1512.77137756348)
x4423                                               1 	(obj:970.799789428711)
x4596                                               1 	(obj:0)
x4635                                               1 	(obj:833.399963378906)
x4784                                               1 	(obj:0)
x4921                                               1 	(obj:1512.77137756348)
x4980                                               1 	(obj:2035.71418762207)
x5077                                               1 	(obj:2128.37127685547)
x5181                                               1 	(obj:1193.39973449707)
x5350                                               1 	(obj:0)
x5389                                               1 	(obj:2128.37127685547)
x5508                                               1 	(obj:0)
x5598                                               1 	(obj:1193.39973449707)
x5756                                               1 	(obj:0)
x5792                                               1 	(obj:1193.39973449707)
x5931                                               1 	(obj:2128.28544616699)
x6015                                               1 	(obj:970.799789428711)
x6132                                               1 	(obj:0)
x6220                                               1 	(obj:2128.37127685547)
x6339                                               1 	(obj:2128.37127685547)
x6433                                               1 	(obj:1193.39973449707)
x6545                                               1 	(obj:2128.37127685547)
x6641                                               1 	(obj:1193.39973449707)
x6795                                               1 	(obj:0)
x6888                                               1 	(obj:0)
x6992                                               1 	(obj:0)
x7104                                               1 	(obj:0)
x7163                                               1 	(obj:1193.39973449707)
x7267                                               1 	(obj:970.799789428711)
x7415                                               1 	(obj:0)
x7559                                               1 	(obj:0)
x7643                                               1 	(obj:0)
x7685                                               1 	(obj:1193.39973449707)
x7827                                               1 	(obj:0)
x7899                                               1 	(obj:1193.39973449707)
x8065                                               1 	(obj:0)
x8151                                               1 	(obj:0)
x8245                                               1 	(obj:1057.19970703125)
x8389                                               1 	(obj:0)
x8490                                               1 	(obj:0)
x8558                                               1 	(obj:0)
x8642                                               1 	(obj:1193.39973449707)
x8742                                               1 	(obj:1193.39973449707)
x8923                                               1 	(obj:0)
x8963                                               1 	(obj:2128.37127685547)
x9049                                               1 	(obj:2128.37127685547)
x9214                                               1 	(obj:0)
x9322                                               1 	(obj:0)
x9418                                               1 	(obj:0)
x9481                                               1 	(obj:1193.39973449707)
x9576                                               1 	(obj:2128.37127685547)
x9709                                               1 	(obj:0)
x9809                                               1 	(obj:1057.19970703125)
x9888                                               1 	(obj:833.399963378906)
x10031                                              1 	(obj:0)
x10120                                              1 	(obj:0)
x10214                                              1 	(obj:2128.37127685547)
x10306                                              1 	(obj:1193.39973449707)
x10455                                              1 	(obj:0)
x10598                                              1 	(obj:0)
x10683                                              1 	(obj:0)
x10778                                              1 	(obj:0)
x10876                                              1 	(obj:0)
x10934                                              1 	(obj:2128.37127685547)
x11025                                          18204 	(obj:0)
x11026                                           7037 	(obj:0)
x11027                               26090.4179077148 	(obj:0)
x11028                                           4764 	(obj:0)
x11029                                          33274 	(obj:0)
x11030                               24085.0286865234 	(obj:0)
x11031                                          14798 	(obj:0)
x11032                                          10660 	(obj:0)
x11033                                          30699 	(obj:0)
x11034                               22705.8467254639 	(obj:0)
x11035                                           8732 	(obj:0)
x11036                                          35914 	(obj:0)
x11037                                          10663 	(obj:0)
x11038                                          40188 	(obj:0)
x11039                               22148.5055541992 	(obj:0)
x11040                                          40216 	(obj:0)
x11041                               22392.9151763916 	(obj:0)
x11042                                          27690 	(obj:0)
x11043                                           7023 	(obj:0)
x11044                                          37455 	(obj:0)
x11045                                          32005 	(obj:0)
x11046                                          36215 	(obj:0)
x11047                                          39975 	(obj:0)
x11048                                          40255 	(obj:0)
x11049                                           3600 	(obj:0)
x11050                               28862.2006225586 	(obj:0)
x11051                               24228.5055541992 	(obj:0)
x11052                                          10575 	(obj:0)
x11053                               27084.7993774414 	(obj:0)
x11054                                          28431 	(obj:0)
x11055                                           8602 	(obj:0)
x11056                                          11904 	(obj:0)
x11057                                           9244 	(obj:0)
x11058                                          27402 	(obj:0)
x11059                                           9524 	(obj:0)
x11060                                          33126 	(obj:0)
x11061                                          11275 	(obj:0)
x11062                                           8421 	(obj:0)
x11063                                          20672 	(obj:0)
x11064                                          25701 	(obj:0)
x11065                               12156.2006225586 	(obj:0)
x11066                               22529.4688110352 	(obj:0)
x11067                                          30915 	(obj:0)
x11068                                          22973 	(obj:0)
x11069                                           7867 	(obj:0)
x11070                                          29095 	(obj:0)
x11071                                          37895 	(obj:0)
x11072                                          12890 	(obj:0)
x11073                                           7043 	(obj:0)
x11074                                          10621 	(obj:0)
x11075                                          23549 	(obj:0)
x11076                                          32564 	(obj:0)
x11077                                           5968 	(obj:0)
x11078                                           8251 	(obj:0)
x11079                                          38077 	(obj:0)
x11080                                           6036 	(obj:0)
x11081                                           6605 	(obj:0)
x11082                                          35344 	(obj:0)
x11083                                          33095 	(obj:0)
x11084                                          12078 	(obj:0)
x11085                               20289.0887031555 	(obj:0)
x11086                                           6612 	(obj:0)
x11087                                          15692 	(obj:0)
x11088                               23780.0002288818 	(obj:0)
x11089                                          31610 	(obj:0)
